19:28:01 | INFO    | Run started | run_id: SR_SV_WT_case2_P5_eps9999 | log file: C:\Users\Asus\Documents\GitHub\logistics-model2\internal-logistics-model2\results\SR_SV_WT\case2\SR_SV_WT_case2_P5_eps9999_2026_05_06_19_28.log
19:28:01 | INFO    | Products loaded | sheet=case2 | rows=15
19:28:01 | INFO    | Data loaded | |N|=31 |Nw|=30 |K|=1 |R|=1 |P|=5 | U=30
19:28:01 | INFO    | Big-M | time=491.0 precedence=480.0 wait=465.0 load_lb=20 load_ub=20
19:28:01 | INFO    | Set parameter Username
19:28:01 | INFO    | Set parameter LicenseID to value 2811848
19:28:01 | INFO    | Academic license - for non-commercial use only - expires 2027-04-22
19:28:01 | INFO    | Objective set | primary: min total_wait | tie-break weight on route_duration: 0.001
19:28:01 | INFO    | Constraint (3) added | route_duration <= 9999
19:28:01 | INFO    | Constraints (4)-(9) added | route structure
19:28:01 | INFO    | Constraints (10)-(12) added | product assignment
19:28:01 | INFO    | Constraints (13)-(15) added | route timing
19:28:02 | INFO    | Constraints (16) added | time consistency
19:28:02 | INFO    | Constraints (17)-(19) added | service times
19:28:02 | INFO    | Constraints (20)-(22) added | precedence, route closure, waiting
19:28:02 | INFO    | Constraints (23)-(27) added | load propagation
19:28:02 | INFO    | Constraints (28)-(32) added | MTZ and route ordering
19:28:02 | INFO    | Set parameter TimeLimit to value 600
19:28:02 | INFO    | Set parameter MIPGap to value 0.01
19:28:02 | INFO    | Set parameter Presolve to value 2
19:28:02 | INFO    | Set parameter LogFile to value "C:\Users\Asus\Documents\GitHub\logistics-model2\internal-logistics-model2\results\SR_SV_WT\case2\result_SR_SV_WT_case2_P5_eps9999_2026_05_06_19_28.log"
19:28:02 | INFO    | Solver configured | TimeLimit=600s | MIPGap=0.01 | gurobi_log=C:\Users\Asus\Documents\GitHub\logistics-model2\internal-logistics-model2\results\SR_SV_WT\case2\result_SR_SV_WT_case2_P5_eps9999_2026_05_06_19_28.log
19:28:02 | INFO    | Optimization starting...
19:28:02 | INFO    | Gurobi Optimizer version 12.0.0 build v12.0.0rc1 (win64 - Windows 10.0 (19045.2))
19:28:02 | INFO    | 
19:28:02 | INFO    | CPU model: 12th Gen Intel(R) Core(TM) i7-12650H, instruction set [SSE2|AVX|AVX2]
19:28:02 | INFO    | Thread count: 10 physical cores, 16 logical processors, using up to 16 threads
19:28:02 | INFO    | 
19:28:02 | INFO    | Non-default parameters:
19:28:02 | INFO    | TimeLimit  600
19:28:02 | INFO    | MIPGap  0.01
19:28:02 | INFO    | Presolve  2
19:28:02 | INFO    | 
19:28:02 | INFO    | Optimize a model with 3852 rows, 1123 columns and 19430 nonzeros
19:28:02 | INFO    | Model fingerprint: 0x2434e391
19:28:02 | INFO    | Variable types: 158 continuous, 965 integer (935 binary)
19:28:02 | INFO    | Coefficient statistics:
19:28:02 | INFO    |   Matrix range     [1e+00, 5e+02]
19:28:02 | INFO    |   Objective range  [1e-03, 1e+00]
19:28:02 | INFO    |   Bounds range     [1e+00, 3e+01]
19:28:02 | INFO    |   RHS range        [1e+00, 1e+04]
19:28:02 | INFO    | Presolve removed 3586 rows and 1021 columns
19:28:02 | INFO    | Presolve time: 0.00s
19:28:02 | INFO    | Presolved: 266 rows, 102 columns, 1113 nonzeros
19:28:02 | INFO    | Variable types: 29 continuous, 73 integer (65 binary)
19:28:02 | INFO    | Root relaxation presolve removed 10 rows and 0 columns
19:28:02 | INFO    | Root relaxation presolved: 256 rows, 111 columns, 1093 nonzeros
19:28:02 | INFO    | 
19:28:02 | INFO    | 
19:28:02 | INFO    | Root relaxation: objective 1.500000e+01, 68 iterations, 0.00 seconds (0.00 work units)
19:28:02 | INFO    | 
19:28:02 | INFO    |     Nodes    |    Current Node    |     Objective Bounds      |     Work
19:28:02 | INFO    |  Expl Unexpl |  Obj  Depth IntInf | Incumbent    BestBd   Gap | It/Node Time
19:28:02 | INFO    | 
19:28:02 | INFO    |      0     0   15.00000    0   17          -   15.00000      -     -    0s
19:28:02 | INFO    | H    0     0                     170.0920000   15.00000  91.2%     -    0s
19:28:02 | INFO    | H    0     0                     133.0850000   15.00000  88.7%     -    0s
19:28:02 | INFO    |      0     0   15.00000    0   22  133.08500   15.00000  88.7%     -    0s
19:28:02 | INFO    |      0     0   15.00000    0   26  133.08500   15.00000  88.7%     -    0s
19:28:02 | INFO    |      0     0   19.00469    0   26  133.08500   19.00469  85.7%     -    0s
19:28:02 | INFO    | H    0     0                     116.0820000   19.00469  83.6%     -    0s
19:28:02 | INFO    |      0     0   22.67848    0   26  116.08200   22.67848  80.5%     -    0s
19:28:02 | INFO    | H    0     0                     110.0780000   22.67848  79.4%     -    0s
19:28:02 | INFO    | H    0     0                     103.0770000   22.67848  78.0%     -    0s
19:28:02 | INFO    |      0     0   24.81920    0   30  103.07700   24.81920  75.9%     -    0s
19:28:02 | INFO    |      0     0   32.31649    0   28  103.07700   32.31649  68.6%     -    0s
19:28:02 | INFO    |      0     0   33.82589    0   29  103.07700   33.82589  67.2%     -    0s
19:28:02 | INFO    |      0     0   34.40552    0   29  103.07700   34.40552  66.6%     -    0s
19:28:02 | INFO    |      0     0   34.43381    0   27  103.07700   34.43381  66.6%     -    0s
19:28:02 | INFO    |      0     0   34.43675    0   28  103.07700   34.43675  66.6%     -    0s
19:28:02 | INFO    |      0     0   41.36560    0   32  103.07700   41.36560  59.9%     -    0s
19:28:02 | INFO    |      0     0   42.88624    0   32  103.07700   42.88624  58.4%     -    0s
19:28:02 | INFO    |      0     0   43.05045    0   33  103.07700   43.05045  58.2%     -    0s
19:28:02 | INFO    |      0     0   43.05045    0   33  103.07700   43.05045  58.2%     -    0s
19:28:02 | INFO    |      0     0   43.05045    0   33  103.07700   43.05045  58.2%     -    0s
19:28:02 | INFO    |      0     0   43.17097    0   33  103.07700   43.17097  58.1%     -    0s
19:28:02 | INFO    |      0     0   43.28367    0   33  103.07700   43.28367  58.0%     -    0s
19:28:02 | INFO    |      0     0   43.69015    0   33  103.07700   43.69015  57.6%     -    0s
19:28:02 | INFO    | H    0     0                      89.0790000   43.69015  51.0%     -    0s
19:28:02 | INFO    |      0     2   43.69015    0   30   89.07900   43.69015  51.0%     -    0s
19:28:02 | INFO    | H  130   114                      85.0750000   47.79072  43.8%  11.4    0s
19:28:02 | INFO    | H  379   154                      85.0670000   51.38030  39.6%  10.7    0s
19:28:02 | INFO    | 
19:28:02 | INFO    | Cutting planes:
19:28:02 | INFO    |   Learned: 9
19:28:02 | INFO    |   Cover: 1
19:28:02 | INFO    |   Implied bound: 39
19:28:02 | INFO    |   MIR: 62
19:28:02 | INFO    |   Inf proof: 3
19:28:02 | INFO    |   RLT: 8
19:28:02 | INFO    |   Relax-and-lift: 8
19:28:02 | INFO    | 
19:28:02 | INFO    | Explored 1245 nodes (14000 simplex iterations) in 0.16 seconds (0.13 work units)
19:28:02 | INFO    | Thread count was 16 (of 16 available processors)
19:28:02 | INFO    | 
19:28:02 | INFO    | Solution count 8: 85.067 85.075 89.079 ... 170.092
19:28:02 | INFO    | 
19:28:02 | INFO    | Optimal solution found (tolerance 1.00e-02)
19:28:02 | INFO    | Best objective 8.506700000000e+01, best bound 8.506700000000e+01, gap 0.0000%
19:28:02 | INFO    | Solution found | total_wait=85.00 | route_duration=67.00
19:28:02 | INFO    | Objective=85.07 | runtime=0.16s | MIP Gap=0.00%
19:28:02 | INFO    | Generating Excel output | C:\Users\Asus\Documents\GitHub\logistics-model2\internal-logistics-model2\results\SR_SV_WT\case2\result_SR_SV_WT_case2_P5_eps9999_2026_05_06_19_28.xlsx
19:28:02 | INFO    | Excel output written | 12 sheets | C:\Users\Asus\Documents\GitHub\logistics-model2\internal-logistics-model2\results\SR_SV_WT\case2\result_SR_SV_WT_case2_P5_eps9999_2026_05_06_19_28.xlsx
19:28:02 | INFO    | Master Pareto updated | 12 total rows | C:\Users\Asus\Documents\GitHub\logistics-model2\internal-logistics-model2\results\master_pareto.xlsx
19:28:02 | INFO    | Run complete | run_id=SR_SV_WT_case2_P5_eps9999
